
Gurobi 6.0.4 (win64) logging started 06/14/15 16:33:14

Read LP format model from file E:\Eigene Dateien\Downloads\Michi shit\VRPTWMS-master\VRPTWMS\instances\mip\fuel\N7-C_DV100-C_SV25_F5_6_No_1.lp
Reading time = 0.00 seconds
(null): 330 rows, 169 columns, 1326 nonzeros
Optimize a model with 330 rows, 169 columns and 1326 nonzeros
Model has 392 quadratic constraints
WARNING: Only barrier available for SOCP models
Coefficient statistics:
  Matrix range    [1e+00, 1e+02]
  Objective range [4e+00, 1e+03]
  Bounds range    [1e+00, 1e+02]
  RHS range       [1e+00, 1e+02]
Presolve removed 30 rows and 14 columns
Presolve time: 0.02s
Presolved: 1000 rows, 525 columns, 4806 nonzeros
Variable types: 330 continuous, 195 integer (157 binary)
Found heuristic solution: objective 7205.1400000
Optimize a model with 1000 rows, 525 columns and 4806 nonzeros
Coefficient statistics:
  Matrix range    [9e-01, 1e+02]
  Objective range [4e+00, 1e+03]
  Bounds range    [1e+00, 1e+02]
  RHS range       [1e+00, 1e+02]

Concurrent LP optimizer: dual simplex and barrier
Showing barrier log only...

Presolve removed 109 rows and 73 columns
Presolved: 891 rows, 453 columns, 4318 nonzeros

Root barrier log...

Ordering time: 0.01s

Barrier performed 0 iterations in 0.04 seconds
Barrier solve interrupted - model solved by another algorithm


Solved with dual simplex
Solved in 58 iterations and 0.04 seconds
Optimal objective  4.403061638e+02

Root relaxation: objective 4.403062e+02, 58 iterations, 0.01 seconds

    Nodes    |    Current Node    |     Objective Bounds      |     Work
 Expl Unexpl |  Obj  Depth IntInf | Incumbent    BestBd   Gap | It/Node Time

     0     0  440.30616    0   23 7205.14000  440.30616  93.9%     -    0s
H    0     0                    6199.7900000  440.30616  92.9%     -    0s
     0     0 1080.35000    0   20 6199.79000 1080.35000  82.6%     -    0s
H    0     0                    5191.2200000 1080.35000  79.2%     -    0s
     0     0 1080.38409    0   26 5191.22000 1080.38409  79.2%     -    0s
H    0     0                    4157.2200000 1080.38409  74.0%     -    0s
     0     0 1080.45480    0   26 4157.22000 1080.45480  74.0%     -    0s
H    0     0                    4155.4400000 1080.45480  74.0%     -    0s
     0     0 1080.61200    0   18 4155.44000 1080.61200  74.0%     -    0s
H    0     0                    3176.1000000 1080.61200  66.0%     -    0s
     0     0 1080.61200    0   18 3176.10000 1080.61200  66.0%     -    0s
     0     0 1080.61200    0   18 3176.10000 1080.61200  66.0%     -    0s
H    0     0                    3158.0400000 1080.61200  65.8%     -    0s
     0     2 1080.61200    0   18 3158.04000 1080.61200  65.8%     -    0s
H   97    63                    3148.8400000 1089.85000  65.4%  17.5    0s
H  226   108                    3145.9000000 1092.26616  65.3%  18.6    0s
H  504   204                    3145.7600000 1115.62900  64.5%  18.6    0s
H 3034   818                    3142.6600000 2083.31976  33.7%  23.9    1s
 12559   998 infeasible   27      3142.66000 2132.82246  32.1%  33.3    5s

Cutting planes:
  Learned: 2
  Gomory: 3
  Cover: 1
  Implied bound: 2
  Clique: 1
  MIR: 4
  Flow cover: 2
  GUB cover: 2
  Zero half: 13

Explored 17969 nodes (665407 simplex iterations) in 7.49 seconds
Thread count was 4 (of 4 available processors)

Optimal solution found (tolerance 1.00e-04)
Best objective 3.142660000000e+03, best bound 3.142660000000e+03, gap 0.0%
k_c1	55.0
k_c2	9.0
k_c3	98.0
k_c4	95.0
k_c5	53.0
k_c6	87.0
k_c7	100.0
k_dN	-0.0
o_1	0.0
o_2	0.0
o_3	0.0
o_4	0.0
o_5	0.0
o_6	0.0
o_7	0.0
p_1	0.0
p_2	0.0
p_3	0.0
p_4	0.0
p_5	0.0
p_6	0.0
p_7	0.0
phi_c1	2.0
phi_c2	2.0
phi_c3	3.0
phi_c4	3.0
phi_c5	1.0
phi_c6	2.0
phi_c7	3.0
phi_dN	-0.0
pi_c1	0.0
pi_c2	0.0
pi_c3	0.0
pi_c4	0.0
pi_c5	0.0
pi_c6	0.0
pi_c7	0.0
pi_dN	-0.0
tauD_c1	27.0
tauD_c2	75.0
tauD_c3	65.0
tauD_c4	25.0
tauD_c5	43.0
tauD_c6	40.0
tauD_c7	5.0
tauD_d0	-0.0
tauD_dN	100.0
tauS_c1	0.0
tauS_c2	0.0
tauS_c3	0.0
tauS_c4	0.0
tauS_c5	0.0
tauS_c6	2.0
tauS_c7	0.0
tauS_d0	-0.0
tauS_dN	100.0
x_c1_c5	1.0
x_c2_dN	1.0
x_c3_c2	1.0
x_c4_c6	1.0
x_c5_dN	1.0
x_c6_dN	1.0
x_c7_c1	1.0
x_d0_c3	1.0
x_d0_c4	1.0
x_d0_c7	1.0
